GLPSOL--GLPK LP/MIP Solver 5.0
Parameter(s) specified in the command line:
 --lp ../modeles/15_319.lp --log 15_319.log
Reading problem data from '../modeles/15_319.lp'...
4846 rows, 9600 columns, 33570 non-zeros
4785 integer variables, all of which are binary
14467 lines were read
GLPK Integer Optimizer 5.0
4846 rows, 9600 columns, 33570 non-zeros
4785 integer variables, all of which are binary
Preprocessing...
4710 constraint coefficient(s) were reduced
4846 rows, 9585 columns, 33555 non-zeros
4785 integer variables, all of which are binary
Scaling...
 A: min|aij| =  3.931e-05  max|aij| =  4.000e+00  ratio =  1.018e+05
GM: min|aij| =  5.599e-02  max|aij| =  1.786e+01  ratio =  3.190e+02
EQ: min|aij| =  3.135e-03  max|aij| =  1.000e+00  ratio =  3.190e+02
2N: min|aij| =  2.516e-03  max|aij| =  1.752e+00  ratio =  6.964e+02
Constructing initial basis...
Size of triangular part is 4846
Solving LP relaxation...
GLPK Simplex Optimizer 5.0
4846 rows, 9585 columns, 33555 non-zeros
      0: obj =   3.000000000e+01 inf =   7.450e+01 (31)
Perturbing LP to avoid stalling [199]...
    284: obj =   4.997101022e-01 inf =   0.000e+00 (0)
Removing LP perturbation [902]...
*   902: obj =  -3.872611584e+00 inf =   9.539e-15 (0) 1
OPTIMAL LP SOLUTION FOUND
Integer optimization begins...
Long-step dual simplex will be used
+   902: mip =     not found yet >=              -inf        (1; 0)
+  1162: >>>>>  -3.872611584e+00 >=  -3.872611584e+00 < 0.1% (254; 0)
+  1162: mip =  -3.872611584e+00 >=     tree is empty   0.0% (0; 507)
INTEGER OPTIMAL SOLUTION FOUND
Time used:   2.8 secs
Memory used: 13.9 Mb (14603213 bytes)
